100
150
99
99
98
97
96
93
92
92
91
91
91
90
90
90
89
88
88
87
85
85
84
84
84
82
80
80
80
80
78
77
76
75
74
73
72
70
70
69
68
68
67
66
65
65
65
65
64
62
59
59
59
58
58
57
57
56
56
56
55
55
54
51
51
50
49
48
46
46
46
46
46
46
45
44
44
41
41
41
41
40
40
39
39
38
37
36
36
36
35
35
35
35
34
34
34
34
32
32
31
30
